g3 0 1 0	# problem FES2
 10 0 3 0 0	# vars, constraints, objectives, ranges, eqns
 0 3	# nonlinear constraints, objectives
 0 0	# network constraints: nonlinear, linear
 0 10 0	# nonlinear vars in constraints, objectives, both
 0 0 0 1	# linear network variables; functions; arith, flags
 0 0 0 0 0	# discrete variables: binary, integer, nonlinear (b,c,o)
 0 30	# nonzeros in Jacobian, gradients
 0 0	# max name lengths: constraints, variables
 0 0 0 0 0	# common exprs: b,c,o,c1,o1
O0 0
o54
10
o5
o1
o1
v0
n-0.5
n0.5
n2
o5
o1
o1
v1
n0.5
n0.5
n2
o5
o1
o1
v2
n-0.5
n0.5
n2
o5
o1
o1
v3
n0.5
n0.5
n2
o5
o1
o1
v4
n-0.5
n0.5
n2
o5
o1
o1
v5
n0.5
n0.5
n2
o5
o1
o1
v6
n-0.5
n0.5
n2
o5
o1
o1
v7
n0.5
n0.5
n2
o5
o1
o1
v8
n-0.5
n0.5
n2
o5
o1
o1
v9
n0.5
n0.5
n2
O1 0
o54
10
o39
o15
v0
o39
o15
o1
v1
n0.20670545260795153
o39
o15
o1
v2
n0.1431875042260767
o39
o15
o1
v3
n0.019518255158438483
o39
o15
o1
v4
n0.24470743504042308
o39
o15
o1
v5
n0.07398974227332598
o39
o15
o1
v6
n0.07197762408287536
o39
o15
o1
v7
n0.24532573328919577
o39
o15
o1
v8
n0.020722079936686223
o39
o15
o1
v9
n0.14099546120342557
O2 0
o54
10
o39
o15
o1
o1
v0
n0.25
n0.5
o39
o15
o1
o1
v1
n-0.05621127384153822
n0.5
o39
o15
o1
o1
v2
n0.06800293126290295
n0.5
o39
o15
o1
o1
v3
n-0.2376403448106403
n0.5
o39
o15
o1
o1
v4
n0.023776292233610025
n0.5
o39
o15
o1
o1
v5
n-0.05950321592444937
n0.5
o39
o15
o1
o1
v6
n0.20256087436180575
n0.5
o39
o15
o1
o1
v7
n0.025771624264879524
n0.5
o39
o15
o1
o1
v8
n0.03483487169104794
n0.5
o39
o15
o1
o1
v9
n-0.15040863382731415
n0.5
b
0 0 1
0 0 1
0 0 1
0 0 1
0 0 1
0 0 1
0 0 1
0 0 1
0 0 1
0 0 1
k9
0
0
0
0
0
0
0
0
0
G0 10
0 0
1 0
2 0
3 0
4 0
5 0
6 0
7 0
8 0
9 0
G1 10
0 0
1 0
2 0
3 0
4 0
5 0
6 0
7 0
8 0
9 0
G2 10
0 0
1 0
2 0
3 0
4 0
5 0
6 0
7 0
8 0
9 0
